experiment/data/lkh-res/Vrp-Set-X-n261/Vrp-Set-X-n261-lkh/0.lkh1.vrp
NAME : 0
COMMENT : CVRP Instance
TYPE : CVRP
DIMENSION : 261
EDGE_WEIGHT_TYPE : EUC_2D
CAPACITY : 1081
NODE_COORD_SECTION
1	0	0
2	37700	10500
3	53500	9300
4	82000	62500
5	68900	74500
6	77400	28300
7	39900	81000
8	24200	13900
9	30000	94800
10	55700	25500
11	2200	82800
12	2700	76800
13	96100	82900
14	82500	22500
15	28800	99600
16	12600	16000
17	21900	24300
18	50400	91800
19	53200	80600
20	56600	73400
21	32700	94300
22	84800	6600
23	4500	88900
24	95200	16900
25	73600	6300
26	93900	92500
27	56900	51700
28	96900	91700
29	60300	63700
30	18800	76200
31	80000	10200
32	87900	68700
33	28900	8300
34	83600	36000
35	88700	69900
36	2100	96200
37	85700	71500
38	44700	51900
39	93100	50000
40	31600	48300
41	57200	23000
42	41700	55400
43	48800	34000
44	76000	76300
45	40300	22400
46	47000	79600
47	6700	19400
48	92700	57600
49	52400	67900
50	15500	8900
51	62900	67800
52	46900	46500
53	81000	46700
54	35400	29800
55	8700	54800
56	61800	23600
57	33800	85500
58	77400	79900
59	81100	20100
60	68400	46200
61	89200	99500
62	44900	98500
63	12000	17600
64	55200	98300
65	45500	43300
66	24400	76300
67	79000	65000
68	18900	40000
69	71700	60700
70	35100	6000
71	54600	94100
72	13800	58500
73	56700	34200
74	79000	31500
75	56800	900
76	2000	17200
77	60000	35500
78	90900	98400
79	99200	95600
80	3600	6200
81	61400	75500
82	88300	3600
83	40100	52000
84	46300	92400
85	10900	54000
86	21800	46100
87	33700	58400
88	15700	68600
89	78900	9900
90	24600	76000
91	79200	66900
92	5200	4800
93	6000	71200
94	62900	45000
95	71200	43800
96	66100	97400
97	53300	4900
98	85300	56600
99	49500	19500
100	57300	19100
101	51900	67300
102	73700	15700
103	49300	38300
104	95700	69500
105	53600	53200
106	92600	78800
107	51300	8600
108	5900	24600
109	80300	47200
110	39100	3900
111	31100	53100
112	70600	87100
113	74100	72300
114	93600	700
115	10000	58100
116	79900	35900
117	47700	41000
118	68900	80500
119	4500	24400
120	81800	77000
121	33900	4700
122	60700	5700
123	76300	16800
124	32400	92400
125	35800	4000
126	97700	40900
127	82300	13800
128	45300	91100
129	77100	18200
130	91200	1800
131	25100	58500
132	42200	58500
133	51400	16000
134	85400	5900
135	2400	7500
136	2200	6400
137	72900	5200
138	7300	22300
139	57200	82100
140	12600	23600
141	25900	82400
142	16700	21300
143	27700	16900
144	18400	25000
145	15300	83300
146	56300	25300
147	97800	11200
148	72400	2300
149	16100	32900
150	1500	57900
151	46100	78200
152	85100	73700
153	23700	95100
154	10500	94200
155	97200	95000
156	74900	34000
157	3600	22800
158	74400	11000
159	70500	52800
160	18100	4400
161	42000	8100
162	67100	37000
163	30900	6900
164	98700	83100
165	95100	32200
166	95300	1700
167	38800	26900
168	58500	94300
169	39500	15000
170	48400	87000
171	99500	46200
172	47200	39100
173	22100	66100
174	48800	75600
175	13800	12100
176	72400	45100
177	10200	33400
178	1600	2300
179	28000	36300
180	49100	16400
181	41400	54500
182	44800	3300
183	83500	44500
184	50600	83900
185	73400	5700
186	99100	66300
187	67100	26300
188	57800	54600
189	34400	52700
190	18000	80600
191	60800	85600
192	9300	62500
193	73100	99800
194	38000	87100
195	92000	90000
196	51800	17900
197	8000	40600
198	28200	28100
199	83500	21400
200	89500	58000
201	78500	7800
202	40700	97900
203	3100	26000
204	34600	96100
205	93800	23300
206	60300	91700
207	14400	63700
208	57200	72300
209	83800	47700
210	54500	56800
211	26000	58400
212	34800	3300
213	48300	30900
214	23700	41900
215	41700	48400
216	3300	32300
217	7900	61900
218	51400	47100
219	10800	35900
220	5900	79200
221	53200	18500
222	53600	74500
223	78100	37100
224	44000	90100
225	95300	18000
226	29000	77100
227	33200	32300
228	26400	88100
229	15200	66300
230	9400	10100
231	61400	16000
232	20200	22500
233	14800	8500
234	9300	79900
235	93400	46600
236	99900	19500
237	66000	79100
238	76100	94600
239	54700	96600
240	98000	31600
241	60800	51200
242	39800	13600
243	16600	2400
244	54700	88000
245	62000	87200
246	63400	98500
247	45700	14900
248	68200	44200
249	52300	88500
250	92600	61700
251	53600	48700
252	44500	32700
253	85100	45500
254	5900	17600
255	47400	32500
256	47100	12300
257	33500	87900
258	65000	32100
259	79600	59300
260	47700	18400
261	41700	34200
DEMAND_SECTION
1	0
2	64
3	73
4	98
5	36
6	76
7	13
8	74
9	43
10	80
11	59
12	95
13	33
14	68
15	35
16	64
17	59
18	22
19	10
20	60
21	36
22	20
23	49
24	67
25	69
26	83
27	99
28	25
29	94
30	34
31	96
32	8
33	49
34	89
35	99
36	21
37	70
38	71
39	45
40	32
41	11
42	48
43	35
44	21
45	90
46	99
47	41
48	55
49	59
50	1
51	36
52	94
53	97
54	44
55	55
56	13
57	35
58	71
59	78
60	57
61	96
62	41
63	35
64	13
65	70
66	17
67	41
68	18
69	6
70	81
71	55
72	80
73	34
74	76
75	58
76	33
77	10
78	64
79	66
80	12
81	87
82	21
83	61
84	54
85	7
86	48
87	47
88	26
89	26
90	9
91	35
92	77
93	57
94	97
95	51
96	10
97	39
98	25
99	66
100	92
101	36
102	35
103	59
104	71
105	53
106	42
107	92
108	36
109	85
110	93
111	27
112	88
113	83
114	62
115	52
116	43
117	55
118	59
119	41
120	59
121	83
122	72
123	37
124	88
125	67
126	30
127	60
128	53
129	98
130	92
131	40
132	46
133	51
134	61
135	72
136	59
137	9
138	23
139	4
140	33
141	3
142	13
143	39
144	36
145	88
146	100
147	75
148	63
149	34
150	6
151	53
152	64
153	47
154	41
155	49
156	95
157	17
158	69
159	79
160	94
161	85
162	97
163	27
164	83
165	41
166	87
167	11
168	95
169	41
170	99
171	58
172	26
173	57
174	52
175	18
176	9
177	43
178	15
179	93
180	18
181	32
182	18
183	97
184	96
185	58
186	93
187	37
188	100
189	97
190	41
191	22
192	87
193	42
194	16
195	94
196	7
197	96
198	41
199	90
200	34
201	91
202	47
203	21
204	19
205	37
206	40
207	79
208	60
209	88
210	84
211	75
212	12
213	42
214	21
215	91
216	6
217	57
218	7
219	66
220	7
221	99
222	75
223	4
224	85
225	10
226	29
227	6
228	20
229	7
230	50
231	26
232	29
233	99
234	45
235	57
236	14
237	33
238	2
239	38
240	43
241	64
242	85
243	84
244	46
245	53
246	45
247	48
248	48
249	85
250	60
251	2
252	17
253	12
254	99
255	43
256	40
257	29
258	13
259	29
260	26
261	66
DEPOT_SECTION
1
-1
EOF
