experiment/data/lkh-res/Vrp-Set-X-n261/Vrp-Set-X-n261-lkh/0.lkh1.log
PARAMETER_FILE = baseline_results/cvrp_lkh/Vrp-Set-X-n261/Vrp-Set-X-n261-lkh/0.lkh1.par
Reading PROBLEM_FILE: "baseline_results/cvrp_lkh/Vrp-Set-X-n261/Vrp-Set-X-n261-lkh/0.lkh1.vrp" ... done
ASCENT_CANDIDATES = 50
BACKBONE_TRIALS = 0
BACKTRACKING = NO
# BWTSP =
# CANDIDATE_FILE =
CANDIDATE_SET_TYPE = ALPHA
# DISTANCE =
DEPOT = 1
# EDGE_FILE =
EXCESS = 0.00383142
EXTERNAL_SALESMEN = 0
EXTRA_CANDIDATES = 0 
EXTRA_CANDIDATE_SET_TYPE = QUADRANT
GAIN23 = NO
GAIN_CRITERION = YES
INITIAL_PERIOD = 130
INITIAL_STEP_SIZE = 1
INITIAL_TOUR_ALGORITHM = WALK
# INITIAL_TOUR_FILE = 
INITIAL_TOUR_FRACTION = 1.000
# INPUT_TOUR_FILE = 
KICK_TYPE = 4
KICKS = 1
# MAX_BREADTH =
MAKESPAN = NO
MAX_CANDIDATES = 5 
MAX_SWAPS = 0
MAX_TRIALS = 10000
# MERGE_TOUR_FILE =
MOVE_TYPE = 5 SPECIAL
MTSP_MIN_SIZE = 1
MTSP_MAX_SIZE = 260
# MTSP_SOLUTION_FILE = 
# NONSEQUENTIAL_MOVE_TYPE = 5
# OPTIMUM =
OUTPUT_TOUR_FILE = baseline_results/cvrp_lkh/Vrp-Set-X-n261/Vrp-Set-X-n261-lkh/0.lkh1.tour
PATCHING_A = 1 
PATCHING_C = 0 
# PI_FILE = 
POPMUSIC_INITIAL_TOUR = NO
POPMUSIC_MAX_NEIGHBORS = 5
POPMUSIC_SAMPLE_SIZE = 10
POPMUSIC_SOLUTIONS = 50
POPMUSIC_TRIALS = 1
POPULATION_SIZE = 10
PRECISION = 100
PROBLEM_FILE = baseline_results/cvrp_lkh/Vrp-Set-X-n261/Vrp-Set-X-n261-lkh/0.lkh1.vrp
RECOMBINATION = IPT
RESTRICTED_SEARCH = YES
RUNS = 1
SALESMEN = 13
SCALE = 1
SEED = 1234
# SINTEF_SOLUTION_FILE = 
STOP_AT_OPTIMUM = YES
SUBGRADIENT = YES
# SUBPROBLEM_SIZE =
# SUBPROBLEM_TOUR_FILE = 
SUBSEQUENT_MOVE_TYPE = 5 SPECIAL
SUBSEQUENT_PATCHING = YES
# TIME_LIMIT =
# TOTAL_TIME_LIMIT =
# TOUR_FILE = 
TRACE_LEVEL = 1
VEHICLES = 13

Lower bound = 1481372.8, Ascent time = 0.09 sec.
Cand.min = 5, Cand.avg = 5.0, Cand.max = 5
Preprocessing time = 0.09 sec.
* 1: Cost = 0_2957169, Time = 0.09 sec. 
Writing OUTPUT_TOUR_FILE: "baseline_results/cvrp_lkh/Vrp-Set-X-n261/Vrp-Set-X-n261-lkh/0.lkh1.tour" ... done
* 2: Cost = 0_2884884, Time = 0.11 sec. 
Writing OUTPUT_TOUR_FILE: "baseline_results/cvrp_lkh/Vrp-Set-X-n261/Vrp-Set-X-n261-lkh/0.lkh1.tour" ... done
* 3: Cost = 0_2875513, Time = 0.12 sec. 
Writing OUTPUT_TOUR_FILE: "baseline_results/cvrp_lkh/Vrp-Set-X-n261/Vrp-Set-X-n261-lkh/0.lkh1.tour" ... done
* 5: Cost = 0_2868208, Time = 0.13 sec. 
Writing OUTPUT_TOUR_FILE: "baseline_results/cvrp_lkh/Vrp-Set-X-n261/Vrp-Set-X-n261-lkh/0.lkh1.tour" ... done
* 9: Cost = 0_2866476, Time = 0.15 sec. 
Writing OUTPUT_TOUR_FILE: "baseline_results/cvrp_lkh/Vrp-Set-X-n261/Vrp-Set-X-n261-lkh/0.lkh1.tour" ... done
* 10: Cost = 0_2856496, Time = 0.17 sec. 
Writing OUTPUT_TOUR_FILE: "baseline_results/cvrp_lkh/Vrp-Set-X-n261/Vrp-Set-X-n261-lkh/0.lkh1.tour" ... done
* 15: Cost = 0_2855622, Time = 0.22 sec. 
Writing OUTPUT_TOUR_FILE: "baseline_results/cvrp_lkh/Vrp-Set-X-n261/Vrp-Set-X-n261-lkh/0.lkh1.tour" ... done
* 19: Cost = 0_2854314, Time = 0.28 sec. 
Writing OUTPUT_TOUR_FILE: "baseline_results/cvrp_lkh/Vrp-Set-X-n261/Vrp-Set-X-n261-lkh/0.lkh1.tour" ... done
* 20: Cost = 0_2853054, Time = 0.30 sec. 
Writing OUTPUT_TOUR_FILE: "baseline_results/cvrp_lkh/Vrp-Set-X-n261/Vrp-Set-X-n261-lkh/0.lkh1.tour" ... done
* 28: Cost = 0_2851927, Time = 0.35 sec. 
Writing OUTPUT_TOUR_FILE: "baseline_results/cvrp_lkh/Vrp-Set-X-n261/Vrp-Set-X-n261-lkh/0.lkh1.tour" ... done
* 32: Cost = 0_2851708, Time = 0.39 sec. 
Writing OUTPUT_TOUR_FILE: "baseline_results/cvrp_lkh/Vrp-Set-X-n261/Vrp-Set-X-n261-lkh/0.lkh1.tour" ... done
* 33: Cost = 0_2850639, Time = 0.40 sec. 
Writing OUTPUT_TOUR_FILE: "baseline_results/cvrp_lkh/Vrp-Set-X-n261/Vrp-Set-X-n261-lkh/0.lkh1.tour" ... done
* 37: Cost = 0_2850496, Time = 0.42 sec. 
Writing OUTPUT_TOUR_FILE: "baseline_results/cvrp_lkh/Vrp-Set-X-n261/Vrp-Set-X-n261-lkh/0.lkh1.tour" ... done
* 42: Cost = 0_2838130, Time = 0.50 sec. 
Writing OUTPUT_TOUR_FILE: "baseline_results/cvrp_lkh/Vrp-Set-X-n261/Vrp-Set-X-n261-lkh/0.lkh1.tour" ... done
* 43: Cost = 0_2836527, Time = 0.51 sec. 
Writing OUTPUT_TOUR_FILE: "baseline_results/cvrp_lkh/Vrp-Set-X-n261/Vrp-Set-X-n261-lkh/0.lkh1.tour" ... done
* 45: Cost = 0_2832998, Time = 0.52 sec. 
Writing OUTPUT_TOUR_FILE: "baseline_results/cvrp_lkh/Vrp-Set-X-n261/Vrp-Set-X-n261-lkh/0.lkh1.tour" ... done
* 49: Cost = 0_2830591, Time = 0.54 sec. 
Writing OUTPUT_TOUR_FILE: "baseline_results/cvrp_lkh/Vrp-Set-X-n261/Vrp-Set-X-n261-lkh/0.lkh1.tour" ... done
* 50: Cost = 0_2830058, Time = 0.55 sec. 
Writing OUTPUT_TOUR_FILE: "baseline_results/cvrp_lkh/Vrp-Set-X-n261/Vrp-Set-X-n261-lkh/0.lkh1.tour" ... done
* 52: Cost = 0_2830000, Time = 0.56 sec. 
Writing OUTPUT_TOUR_FILE: "baseline_results/cvrp_lkh/Vrp-Set-X-n261/Vrp-Set-X-n261-lkh/0.lkh1.tour" ... done
* 61: Cost = 0_2828441, Time = 0.60 sec. 
Writing OUTPUT_TOUR_FILE: "baseline_results/cvrp_lkh/Vrp-Set-X-n261/Vrp-Set-X-n261-lkh/0.lkh1.tour" ... done
* 64: Cost = 0_2820971, Time = 0.66 sec. 
Writing OUTPUT_TOUR_FILE: "baseline_results/cvrp_lkh/Vrp-Set-X-n261/Vrp-Set-X-n261-lkh/0.lkh1.tour" ... done
* 65: Cost = 0_2818380, Time = 0.69 sec. 
Writing OUTPUT_TOUR_FILE: "baseline_results/cvrp_lkh/Vrp-Set-X-n261/Vrp-Set-X-n261-lkh/0.lkh1.tour" ... done
* 66: Cost = 0_2818138, Time = 0.69 sec. 
Writing OUTPUT_TOUR_FILE: "baseline_results/cvrp_lkh/Vrp-Set-X-n261/Vrp-Set-X-n261-lkh/0.lkh1.tour" ... done
* 90: Cost = 0_2803113, Time = 0.94 sec. 
Writing OUTPUT_TOUR_FILE: "baseline_results/cvrp_lkh/Vrp-Set-X-n261/Vrp-Set-X-n261-lkh/0.lkh1.tour" ... done
* 94: Cost = 0_2800507, Time = 0.95 sec. 
Writing OUTPUT_TOUR_FILE: "baseline_results/cvrp_lkh/Vrp-Set-X-n261/Vrp-Set-X-n261-lkh/0.lkh1.tour" ... done
* 102: Cost = 0_2785035, Time = 1.01 sec. 
Writing OUTPUT_TOUR_FILE: "baseline_results/cvrp_lkh/Vrp-Set-X-n261/Vrp-Set-X-n261-lkh/0.lkh1.tour" ... done
* 106: Cost = 0_2782757, Time = 1.08 sec. 
Writing OUTPUT_TOUR_FILE: "baseline_results/cvrp_lkh/Vrp-Set-X-n261/Vrp-Set-X-n261-lkh/0.lkh1.tour" ... done
* 114: Cost = 0_2782598, Time = 1.15 sec. 
Writing OUTPUT_TOUR_FILE: "baseline_results/cvrp_lkh/Vrp-Set-X-n261/Vrp-Set-X-n261-lkh/0.lkh1.tour" ... done
* 118: Cost = 0_2780508, Time = 1.16 sec. 
Writing OUTPUT_TOUR_FILE: "baseline_results/cvrp_lkh/Vrp-Set-X-n261/Vrp-Set-X-n261-lkh/0.lkh1.tour" ... done
* 121: Cost = 0_2776087, Time = 1.17 sec. 
Writing OUTPUT_TOUR_FILE: "baseline_results/cvrp_lkh/Vrp-Set-X-n261/Vrp-Set-X-n261-lkh/0.lkh1.tour" ... done
* 130: Cost = 0_2774869, Time = 1.26 sec. 
Writing OUTPUT_TOUR_FILE: "baseline_results/cvrp_lkh/Vrp-Set-X-n261/Vrp-Set-X-n261-lkh/0.lkh1.tour" ... done
* 133: Cost = 0_2773777, Time = 1.29 sec. 
Writing OUTPUT_TOUR_FILE: "baseline_results/cvrp_lkh/Vrp-Set-X-n261/Vrp-Set-X-n261-lkh/0.lkh1.tour" ... done
* 184: Cost = 0_2773498, Time = 1.88 sec. 
Writing OUTPUT_TOUR_FILE: "baseline_results/cvrp_lkh/Vrp-Set-X-n261/Vrp-Set-X-n261-lkh/0.lkh1.tour" ... done
* 186: Cost = 0_2769780, Time = 1.89 sec. 
Writing OUTPUT_TOUR_FILE: "baseline_results/cvrp_lkh/Vrp-Set-X-n261/Vrp-Set-X-n261-lkh/0.lkh1.tour" ... done
* 210: Cost = 0_2769200, Time = 2.17 sec. 
Writing OUTPUT_TOUR_FILE: "baseline_results/cvrp_lkh/Vrp-Set-X-n261/Vrp-Set-X-n261-lkh/0.lkh1.tour" ... done
* 227: Cost = 0_2760352, Time = 2.35 sec. 
Writing OUTPUT_TOUR_FILE: "baseline_results/cvrp_lkh/Vrp-Set-X-n261/Vrp-Set-X-n261-lkh/0.lkh1.tour" ... done
* 238: Cost = 0_2759600, Time = 2.51 sec. 
Writing OUTPUT_TOUR_FILE: "baseline_results/cvrp_lkh/Vrp-Set-X-n261/Vrp-Set-X-n261-lkh/0.lkh1.tour" ... done
* 252: Cost = 0_2759001, Time = 2.67 sec. 
Writing OUTPUT_TOUR_FILE: "baseline_results/cvrp_lkh/Vrp-Set-X-n261/Vrp-Set-X-n261-lkh/0.lkh1.tour" ... done
* 256: Cost = 0_2758897, Time = 2.71 sec. 
Writing OUTPUT_TOUR_FILE: "baseline_results/cvrp_lkh/Vrp-Set-X-n261/Vrp-Set-X-n261-lkh/0.lkh1.tour" ... done
* 257: Cost = 0_2756988, Time = 2.73 sec. 
Writing OUTPUT_TOUR_FILE: "baseline_results/cvrp_lkh/Vrp-Set-X-n261/Vrp-Set-X-n261-lkh/0.lkh1.tour" ... done
* 265: Cost = 0_2756896, Time = 2.85 sec. 
Writing OUTPUT_TOUR_FILE: "baseline_results/cvrp_lkh/Vrp-Set-X-n261/Vrp-Set-X-n261-lkh/0.lkh1.tour" ... done
* 285: Cost = 0_2756797, Time = 3.19 sec. 
Writing OUTPUT_TOUR_FILE: "baseline_results/cvrp_lkh/Vrp-Set-X-n261/Vrp-Set-X-n261-lkh/0.lkh1.tour" ... done
* 296: Cost = 0_2753288, Time = 3.26 sec. 
Writing OUTPUT_TOUR_FILE: "baseline_results/cvrp_lkh/Vrp-Set-X-n261/Vrp-Set-X-n261-lkh/0.lkh1.tour" ... done
* 299: Cost = 0_2753131, Time = 3.30 sec. 
Writing OUTPUT_TOUR_FILE: "baseline_results/cvrp_lkh/Vrp-Set-X-n261/Vrp-Set-X-n261-lkh/0.lkh1.tour" ... done
* 304: Cost = 0_2749265, Time = 3.36 sec. 
Writing OUTPUT_TOUR_FILE: "baseline_results/cvrp_lkh/Vrp-Set-X-n261/Vrp-Set-X-n261-lkh/0.lkh1.tour" ... done
* 307: Cost = 0_2747848, Time = 3.38 sec. 
Writing OUTPUT_TOUR_FILE: "baseline_results/cvrp_lkh/Vrp-Set-X-n261/Vrp-Set-X-n261-lkh/0.lkh1.tour" ... done
* 312: Cost = 0_2745255, Time = 3.41 sec. 
Writing OUTPUT_TOUR_FILE: "baseline_results/cvrp_lkh/Vrp-Set-X-n261/Vrp-Set-X-n261-lkh/0.lkh1.tour" ... done
* 314: Cost = 0_2744895, Time = 3.44 sec. 
Writing OUTPUT_TOUR_FILE: "baseline_results/cvrp_lkh/Vrp-Set-X-n261/Vrp-Set-X-n261-lkh/0.lkh1.tour" ... done
* 317: Cost = 0_2742076, Time = 3.46 sec. 
Writing OUTPUT_TOUR_FILE: "baseline_results/cvrp_lkh/Vrp-Set-X-n261/Vrp-Set-X-n261-lkh/0.lkh1.tour" ... done
* 323: Cost = 0_2741684, Time = 3.54 sec. 
Writing OUTPUT_TOUR_FILE: "baseline_results/cvrp_lkh/Vrp-Set-X-n261/Vrp-Set-X-n261-lkh/0.lkh1.tour" ... done
* 325: Cost = 0_2739551, Time = 3.59 sec. 
Writing OUTPUT_TOUR_FILE: "baseline_results/cvrp_lkh/Vrp-Set-X-n261/Vrp-Set-X-n261-lkh/0.lkh1.tour" ... done
* 328: Cost = 0_2739345, Time = 3.60 sec. 
Writing OUTPUT_TOUR_FILE: "baseline_results/cvrp_lkh/Vrp-Set-X-n261/Vrp-Set-X-n261-lkh/0.lkh1.tour" ... done
* 479: Cost = 0_2738876, Time = 5.63 sec. 
Writing OUTPUT_TOUR_FILE: "baseline_results/cvrp_lkh/Vrp-Set-X-n261/Vrp-Set-X-n261-lkh/0.lkh1.tour" ... done
* 485: Cost = 0_2738829, Time = 5.71 sec. 
Writing OUTPUT_TOUR_FILE: "baseline_results/cvrp_lkh/Vrp-Set-X-n261/Vrp-Set-X-n261-lkh/0.lkh1.tour" ... done
* 489: Cost = 0_2737960, Time = 5.74 sec. 
Writing OUTPUT_TOUR_FILE: "baseline_results/cvrp_lkh/Vrp-Set-X-n261/Vrp-Set-X-n261-lkh/0.lkh1.tour" ... done
* 501: Cost = 0_2732450, Time = 5.90 sec. 
Writing OUTPUT_TOUR_FILE: "baseline_results/cvrp_lkh/Vrp-Set-X-n261/Vrp-Set-X-n261-lkh/0.lkh1.tour" ... done
* 504: Cost = 0_2732184, Time = 5.93 sec. 
Writing OUTPUT_TOUR_FILE: "baseline_results/cvrp_lkh/Vrp-Set-X-n261/Vrp-Set-X-n261-lkh/0.lkh1.tour" ... done
* 537: Cost = 0_2731633, Time = 6.26 sec. 
Writing OUTPUT_TOUR_FILE: "baseline_results/cvrp_lkh/Vrp-Set-X-n261/Vrp-Set-X-n261-lkh/0.lkh1.tour" ... done
* 642: Cost = 0_2731480, Time = 7.82 sec. 
Writing OUTPUT_TOUR_FILE: "baseline_results/cvrp_lkh/Vrp-Set-X-n261/Vrp-Set-X-n261-lkh/0.lkh1.tour" ... done
* 762: Cost = 0_2719886, Time = 9.37 sec. 
Writing OUTPUT_TOUR_FILE: "baseline_results/cvrp_lkh/Vrp-Set-X-n261/Vrp-Set-X-n261-lkh/0.lkh1.tour" ... done
* 766: Cost = 0_2719518, Time = 9.40 sec. 
Writing OUTPUT_TOUR_FILE: "baseline_results/cvrp_lkh/Vrp-Set-X-n261/Vrp-Set-X-n261-lkh/0.lkh1.tour" ... done
* 767: Cost = 0_2709006, Time = 9.43 sec. 
Writing OUTPUT_TOUR_FILE: "baseline_results/cvrp_lkh/Vrp-Set-X-n261/Vrp-Set-X-n261-lkh/0.lkh1.tour" ... done
* 770: Cost = 0_2706385, Time = 9.47 sec. 
Writing OUTPUT_TOUR_FILE: "baseline_results/cvrp_lkh/Vrp-Set-X-n261/Vrp-Set-X-n261-lkh/0.lkh1.tour" ... done
* 818: Cost = 0_2705910, Time = 10.14 sec. 
Writing OUTPUT_TOUR_FILE: "baseline_results/cvrp_lkh/Vrp-Set-X-n261/Vrp-Set-X-n261-lkh/0.lkh1.tour" ... done
* 862: Cost = 0_2705740, Time = 10.89 sec. 
Writing OUTPUT_TOUR_FILE: "baseline_results/cvrp_lkh/Vrp-Set-X-n261/Vrp-Set-X-n261-lkh/0.lkh1.tour" ... done
* 874: Cost = 0_2705654, Time = 11.13 sec. 
Writing OUTPUT_TOUR_FILE: "baseline_results/cvrp_lkh/Vrp-Set-X-n261/Vrp-Set-X-n261-lkh/0.lkh1.tour" ... done
* 903: Cost = 0_2705159, Time = 11.49 sec. 
Writing OUTPUT_TOUR_FILE: "baseline_results/cvrp_lkh/Vrp-Set-X-n261/Vrp-Set-X-n261-lkh/0.lkh1.tour" ... done
* 1282: Cost = 0_2704009, Time = 16.89 sec. 
Writing OUTPUT_TOUR_FILE: "baseline_results/cvrp_lkh/Vrp-Set-X-n261/Vrp-Set-X-n261-lkh/0.lkh1.tour" ... done
* 1414: Cost = 0_2703241, Time = 18.78 sec. 
Writing OUTPUT_TOUR_FILE: "baseline_results/cvrp_lkh/Vrp-Set-X-n261/Vrp-Set-X-n261-lkh/0.lkh1.tour" ... done
* 1427: Cost = 0_2703099, Time = 19.03 sec. 
Writing OUTPUT_TOUR_FILE: "baseline_results/cvrp_lkh/Vrp-Set-X-n261/Vrp-Set-X-n261-lkh/0.lkh1.tour" ... done
* 1460: Cost = 0_2702915, Time = 19.67 sec. 
Writing OUTPUT_TOUR_FILE: "baseline_results/cvrp_lkh/Vrp-Set-X-n261/Vrp-Set-X-n261-lkh/0.lkh1.tour" ... done
* 1482: Cost = 0_2702706, Time = 20.04 sec. 
Writing OUTPUT_TOUR_FILE: "baseline_results/cvrp_lkh/Vrp-Set-X-n261/Vrp-Set-X-n261-lkh/0.lkh1.tour" ... done
* 1488: Cost = 0_2702602, Time = 20.11 sec. 
Writing OUTPUT_TOUR_FILE: "baseline_results/cvrp_lkh/Vrp-Set-X-n261/Vrp-Set-X-n261-lkh/0.lkh1.tour" ... done
* 3211: Cost = 0_2700150, Time = 45.35 sec. 
Writing OUTPUT_TOUR_FILE: "baseline_results/cvrp_lkh/Vrp-Set-X-n261/Vrp-Set-X-n261-lkh/0.lkh1.tour" ... done
* 3222: Cost = 0_2697202, Time = 45.46 sec. 
Writing OUTPUT_TOUR_FILE: "baseline_results/cvrp_lkh/Vrp-Set-X-n261/Vrp-Set-X-n261-lkh/0.lkh1.tour" ... done
* 3267: Cost = 0_2696972, Time = 46.10 sec. 
Writing OUTPUT_TOUR_FILE: "baseline_results/cvrp_lkh/Vrp-Set-X-n261/Vrp-Set-X-n261-lkh/0.lkh1.tour" ... done
* 3351: Cost = 0_2695983, Time = 47.45 sec. 
Writing OUTPUT_TOUR_FILE: "baseline_results/cvrp_lkh/Vrp-Set-X-n261/Vrp-Set-X-n261-lkh/0.lkh1.tour" ... done
* 3765: Cost = 0_2695160, Time = 53.64 sec. 
Writing OUTPUT_TOUR_FILE: "baseline_results/cvrp_lkh/Vrp-Set-X-n261/Vrp-Set-X-n261-lkh/0.lkh1.tour" ... done
* 3799: Cost = 0_2694304, Time = 54.06 sec. 
Writing OUTPUT_TOUR_FILE: "baseline_results/cvrp_lkh/Vrp-Set-X-n261/Vrp-Set-X-n261-lkh/0.lkh1.tour" ... done
* 3836: Cost = 0_2694294, Time = 54.57 sec. 
Writing OUTPUT_TOUR_FILE: "baseline_results/cvrp_lkh/Vrp-Set-X-n261/Vrp-Set-X-n261-lkh/0.lkh1.tour" ... done
* 3875: Cost = 0_2694153, Time = 55.30 sec. 
Writing OUTPUT_TOUR_FILE: "baseline_results/cvrp_lkh/Vrp-Set-X-n261/Vrp-Set-X-n261-lkh/0.lkh1.tour" ... done
* 4095: Cost = 0_2694124, Time = 58.93 sec. 
Writing OUTPUT_TOUR_FILE: "baseline_results/cvrp_lkh/Vrp-Set-X-n261/Vrp-Set-X-n261-lkh/0.lkh1.tour" ... done
* 9701: Cost = 0_2693764, Time = 136.34 sec. 
Writing OUTPUT_TOUR_FILE: "baseline_results/cvrp_lkh/Vrp-Set-X-n261/Vrp-Set-X-n261-lkh/0.lkh1.tour" ... done
Population:
  1: 0_2693764
Run 1: Cost = 0_2693764, Time = 140.57 sec. 

Successes/Runs = 0/1 
Cost.min = 2693764, Cost.avg = 2693764.00, Cost.max = 2693764
Gap.min = 0.0000%, Gap.avg = 0.0000%, Gap.max = 0.0000%
Penalty.min = 0, Penalty.avg = 0.00, Penalty.max = 0
Trials.min = 10000, Trials.avg = 10000.0, Trials.max = 10000
Time.min = 140.57 sec., Time.avg = 140.57 sec., Time.max = 140.57 sec.
Time.total = 140.66 sec.
  Size.min = 11, Size.max = 29, Penalty = 0
  Cost.min = 90609, Cost.max = 309442, Cost.sum = 2693764
Best CVRP solution:
  Cost = 0_2693764

