experiment/data/lkh-res/Vrp-Set-X-n261/Vrp-Set-X-n261-lkh/0.lkh1.tour
NAME : 0.2693764.tour
COMMENT : Length = 2693764
COMMENT : Found by LKH-3 [Keld Helsgaun] Tue Apr  9 05:00:49 2024
TYPE : TOUR
DIMENSION : 273
TOUR_SECTION
1
75
148
22
134
82
130
114
166
147
24
225
236
205
165
240
126
171
235
39
253
223
156
258
264
80
19
139
191
245
206
168
246
96
193
238
61
78
155
79
28
26
195
112
118
237
81
265
157
55
115
72
207
229
88
30
190
145
154
36
23
11
234
220
12
93
192
217
150
216
203
76
269
143
45
260
99
10
146
41
100
221
133
3
107
161
110
125
212
267
233
50
8
169
242
2
70
121
163
160
243
266
94
248
60
98
200
48
250
186
104
164
13
106
35
32
4
259
159
241
268
215
105
210
29
51
5
113
44
58
120
152
37
91
67
69
188
27
251
218
227
175
270
142
42
132
101
49
208
20
222
174
151
46
184
244
249
170
7
87
111
214
149
272
182
97
122
137
185
25
158
201
89
31
127
199
14
59
129
123
102
231
256
271
232
17
198
54
261
252
255
43
103
172
117
65
52
38
181
83
189
40
179
144
178
273
33
247
180
196
56
187
6
74
116
34
183
209
53
109
176
95
162
77
73
213
167
262
136
135
254
47
138
108
119
197
219
177
140
63
16
230
92
263
68
86
131
211
226
57
257
194
224
128
84
18
71
239
64
62
202
204
21
124
9
15
153
228
141
66
90
173
85
-1
EOF
